p wcnf 10 25 11
c ===== Hard Clauses =====
11 1 2 0
11 2 3 0
11 3 4 0
11 4 5 0
11 5 1 0
11 1 6 0
11 2 7 0
11 3 8 0
11 4 9 0
11 5 10 0
11 6 8 0
11 6 9 0
11 7 9 0
11 7 10 0
11 8 10 0
c ===== Soft Clauses (Sum weights: 10) =====
1 -1 0
1 -2 0
1 -3 0
1 -4 0
1 -5 0
1 -6 0
1 -7 0
1 -8 0
1 -9 0
1 -10 0
